
Gurobi 11.0.0 (linux64) logging started Thu Dec  5 15:05:58 2024

Set parameter LogFile to value "gurobi.log"
Set parameter InfUnbdInfo to value 1
Gurobi Optimizer version 11.0.0 build v11.0.0rc2 (linux64 - "Ubuntu 22.04.4 LTS")

CPU model: AMD EPYC 7V13 64-Core Processor, instruction set [SSE2|AVX|AVX2]
Thread count: 128 physical cores, 128 logical processors, using up to 32 threads

Optimize a model with 39 rows, 160 columns and 116 nonzeros
Model fingerprint: 0x1fd823ec
Model has 114 quadratic constraints
Model has 11 general constraints
Variable types: 37 continuous, 123 integer (0 binary)
Coefficient statistics:
  Matrix range     [1e+00, 2e+01]
  QMatrix range    [1e+00, 2e+02]
  QLMatrix range   [1e+00, 2e+02]
  Objective range  [1e+00, 1e+00]
  Bounds range     [1e+00, 2e+06]
  RHS range        [1e+00, 2e+06]
  QRHS range       [2e+02, 9e+03]
Using branch priorities (all 0).
Presolve added 90 rows and 52 columns
Presolve time: 0.01s
Presolved: 425 rows, 361 columns, 1225 nonzeros
Presolved model has 98 SOS constraint(s)
Presolved model has 32 bilinear constraint(s)
Warning: Model contains variables with very large bounds participating
         in product terms.
         Presolve was not able to compute smaller bounds for these variables.
         Consider bounding these variables or reformulating the model.


Solving non-convex MIQCP

Variable types: 85 continuous, 276 integer (114 binary)

Root relaxation: objective 7.373011e+01, 152 iterations, 0.00 seconds (0.00 work units)

    Nodes    |    Current Node    |     Objective Bounds      |     Work
 Expl Unexpl |  Obj  Depth IntInf | Incumbent    BestBd   Gap | It/Node Time

     0     0   73.73011    0   88          -   73.73011      -     -    0s
     0     0   73.73011    0   82          -   73.73011      -     -    0s
H    0     0                    132325.18750   73.73011   100%     -    0s
     0     0  125.93750    0  119 132325.188  125.93750   100%     -    0s
     0     0  136.67313    0  119 132325.188  136.67313   100%     -    0s
H    0     0                    88537.250000  136.67313   100%     -    0s
     0     0  186.20058    0  140 88537.2500  186.20058   100%     -    0s
     0     0  186.20058    0   72 88537.2500  186.20058   100%     -    0s
H    0     0                    69277.375000  186.20058   100%     -    0s
     0     0  186.20058    0  100 69277.3750  186.20058   100%     -    1s
     0     0  186.21859    0   90 69277.3750  186.21859   100%     -    1s
     0     0  214.60665    0   92 69277.3750  214.60665   100%     -    1s
H    0     0                    54898.434528  214.60665   100%     -    1s
     0     0  258.34936    0   92 54898.4345  258.34936   100%     -    1s
H    0     0                    51993.496809  258.34936   100%     -    1s
H    0     0                    42027.658083  258.34936  99.4%     -    1s
     0     0  933.15970    0   90 42027.6581  933.15970  97.8%     -    1s
     0     0 2115.56078    0   88 42027.6581 2115.56078  95.0%     -    1s
     0     0 3496.16183    0   84 42027.6581 3496.16183  91.7%     -    1s
     0     0 3496.16183    0   83 42027.6581 3496.16183  91.7%     -    1s
H    0     0                    30956.852462 3496.16183  88.7%     -    1s
     0     0 3615.56032    0   83 30956.8525 3615.56032  88.3%     -    1s
     0     0 3615.56032    0   82 30956.8525 3615.56032  88.3%     -    1s
     0     0 3700.81440    0   76 30956.8525 3700.81440  88.0%     -    1s
H    0     0                    30428.727462 3700.81440  87.8%     -    1s
     0     0 3809.96067    0   96 30428.7275 3809.96067  87.5%     -    1s
     0     0 4057.32212    0   54 30428.7275 4057.32212  86.7%     -    1s
     0     0 4643.88844    0   54 30428.7275 4643.88844  84.7%     -    1s
     0     0 4800.63039    0   58 30428.7275 4800.63039  84.2%     -    1s
     0     0 5261.47423    0   59 30428.7275 5261.47423  82.7%     -    1s
     0     0 5730.66480    0   58 30428.7275 5730.66480  81.2%     -    1s
     0     0 6109.49951    0   69 30428.7275 6109.49951  79.9%     -    1s
     0     0 6716.87665    0   69 30428.7275 6716.87665  77.9%     -    2s
     0     0 7402.86893    0   70 30428.7275 7402.86893  75.7%     -    2s
     0     0 8144.03747    0   70 30428.7275 8144.03747  73.2%     -    2s
     0     0 8567.46994    0   70 30428.7275 8567.46994  71.8%     -    2s
     0     0 8738.10895    0   70 30428.7275 8738.10895  71.3%     -    2s
     0     0 8843.15936    0  105 30428.7275 8843.15936  70.9%     -    2s
     0     0 9651.09694    0  105 30428.7275 9651.09694  68.3%     -    2s
     0     0 9938.79039    0  112 30428.7275 9938.79039  67.3%     -    2s
     0     0 10993.1510    0  110 30428.7275 10993.1510  63.9%     -    2s
     0     0 11524.8004    0  113 30428.7275 11524.8004  62.1%     -    2s
     0     0 12893.6857    0   97 30428.7275 12893.6857  57.6%     -    3s
     0     2 12893.6857    0   94 30428.7275 12893.6857  57.6%     -    3s
H   32    14                    28600.570797 12893.6857  54.9%  17.8    3s
*  283    62              14    28600.570605 12893.6857  54.9%  13.7    3s

Cutting planes:
  Learned: 1
  Gomory: 1
  Implied bound: 42
  Clique: 1
  MIR: 22
  StrongCG: 1
  Flow cover: 1
  Mod-K: 1
  RLT: 26
  Relax-and-lift: 25

Explored 707 nodes (7320 simplex iterations) in 3.94 seconds (0.17 work units)
Thread count was 32 (of 128 available processors)

Solution count 10: 28600.6 28600.6 30428.7 ... 132325

Optimal solution found (tolerance 1.00e-04)
Warning: max constraint violation (7.6357e-04) exceeds tolerance
Warning: max general constraint violation (7.6357e-04) exceeds tolerance
Best objective 2.860057060494e+04, best bound 2.860057060494e+04, gap 0.0000%
